presolving:
(round 1, fast)       0 del vars, 30500 del conss, 0 add conss, 30000 chg bounds, 0 chg sides, 30250 chg coeffs, 0 upgd conss, 0 impls, 30000 clqs
(round 2, fast)       30000 del vars, 30500 del conss, 0 add conss, 30000 chg bounds, 0 chg sides, 30250 chg coeffs, 0 upgd conss, 0 impls, 30000 clqs
   (1.1s) running MILP presolver
   (1.2s) MILP presolver found nothing
(round 3, exhaustive) 30000 del vars, 30500 del conss, 0 add conss, 30000 chg bounds, 0 chg sides, 30250 chg coeffs, 60370 upgd conss, 0 impls, 30000 clqs
(round 4, medium)     60000 del vars, 90869 del conss, 30000 add conss, 30000 chg bounds, 0 chg sides, 30250 chg coeffs, 60370 upgd conss, 30000 impls, 0 clqs
   (2.0s) running MILP presolver
   (2.1s) MILP presolver found nothing
   (2.6s) probing: 51/250 (20.4%) - 0 fixings, 0 aggregations, 0 implications, 0 bound changes
   (2.6s) probing aborted: 50/50 successive totally useless probings
   (3.0s) symmetry computation started: requiring (bin +, int -, cont +), (fixed: bin -, int +, cont -)
   (3.1s) no symmetry present
presolving (5 rounds: 5 fast, 3 medium, 2 exhaustive):
 60000 deleted vars, 90869 deleted constraints, 30000 added constraints, 30000 tightened bounds, 0 added holes, 0 changed sides, 30250 changed coefficients
 30000 implications, 0 cliques
presolved problem has 30250 variables (250 bin, 0 int, 0 impl, 30000 cont) and 30371 constraints
  30000 constraints of type <varbound>
    370 constraints of type <linear>
      1 constraints of type <logicor>
Presolving Time: 2.74

 time | node  | left  |LP iter|LP it/n|mem/heur|mdpt |vars |cons |rows |cuts |sepa|confs|strbr|  dualbound   | primalbound  |  gap   | compl. 
p 3.3s|     1 |     0 |   120 |     - |   locks|   0 |  30k|  30k|  30k|   0 |  0 |   0 |   0 | 0.000000e+00 | 7.561082e+05 |    Inf | unknown
i 3.4s|     1 |     0 |   120 |     - |  oneopt|   0 |  30k|  30k|  30k|   0 |  0 |   0 |   0 | 0.000000e+00 | 2.875382e+05 |    Inf | unknown
 10.5s|     1 |     0 | 11137 |     - |   515M |   0 |  30k|  30k|  30k|   0 |  0 |   0 |   0 | 5.059265e+04 | 2.875382e+05 | 468.34%| unknown
r10.5s|     1 |     0 | 11137 |     - |simplero|   0 |  30k|  30k|  30k|   0 |  0 |   0 |   0 | 5.059265e+04 | 8.632322e+04 |  70.62%| unknown
r10.9s|     1 |     0 | 11137 |     - |shifting|   0 |  30k|  30k|  30k|   0 |  0 |   0 |   0 | 5.059265e+04 | 8.365739e+04 |  65.35%| unknown
r13.3s|     1 |     0 | 15724 |     - |intshift|   0 |  30k|  30k|  30k|   0 |  2 |   0 |   0 | 5.059265e+04 | 7.469495e+04 |  47.64%| unknown
d14.5s|     1 |     0 | 16885 |     - |farkasdi|   0 |  30k|  30k|  30k|   0 |  2 |   0 |   0 | 5.059265e+04 | 7.158177e+04 |  41.49%| unknown
d17.2s|     1 |     0 | 19908 |     - |farkasdi|   0 |  30k|  30k|  30k|   0 |  2 |   0 |   0 | 5.059265e+04 | 7.154531e+04 |  41.41%| unknown
d17.4s|     1 |     0 | 20112 |     - |farkasdi|   0 |  30k|  30k|  30k|   0 |  2 |   0 |   0 | 5.059265e+04 | 6.920831e+04 |  36.80%| unknown
d18.2s|     1 |     0 | 21230 |     - |farkasdi|   0 |  30k|  30k|  30k|   0 |  2 |   0 |   0 | 5.059265e+04 | 6.269502e+04 |  23.92%| unknown
d19.8s|     1 |     0 | 23307 |     - |farkasdi|   0 |  30k|  30k|  30k|   0 |  2 |   0 |   0 | 5.059265e+04 | 6.041266e+04 |  19.41%| unknown
d21.3s|     1 |     0 | 25235 |     - |farkasdi|   0 |  30k|  30k|  30k|   0 |  2 |   0 |   0 | 5.059265e+04 | 6.016192e+04 |  18.91%| unknown
d21.5s|     1 |     0 | 25512 |     - |farkasdi|   0 |  30k|  30k|  30k|   0 |  2 |   0 |   0 | 5.059265e+04 | 5.995109e+04 |  18.50%| unknown
L31.1s|     1 |     0 | 26830 |     - |    rens|   0 |  30k|  30k|  30k|   0 |  2 |   0 |   0 | 5.059265e+04 | 5.187252e+04 |   2.53%| unknown
 35.2s|     1 |     0 | 26830 |     - |   547M |   0 |  30k|  30k|  30k|   0 |  2 |   0 |   0 | 5.059265e+04 | 5.187252e+04 |   2.53%| unknown
 time | node  | left  |LP iter|LP it/n|mem/heur|mdpt |vars |cons |rows |cuts |sepa|confs|strbr|  dualbound   | primalbound  |  gap   | compl. 
 35.3s|     1 |     0 | 26830 |     - |   557M |   0 |  30k|  30k|  30k|   0 |  2 |   0 |   0 | 5.059265e+04 | 5.187252e+04 |   2.53%| unknown
 35.5s|     1 |     0 | 26830 |     - |   557M |   0 |  30k|  30k|  15k|   0 |  3 |   0 |   0 | 5.059265e+04 | 5.187252e+04 |   2.53%| unknown
(run 1, node 1) restarting after 136 global fixings of integer variables

presolving:
(round 1, fast)       16456 del vars, 0 del conss, 0 add conss, 0 chg bounds, 0 chg sides, 136 chg coeffs, 0 upgd conss, 30000 impls, 0 clqs
   (36.4s) running MILP presolver
   (36.4s) MILP presolver found nothing
presolving (2 rounds: 2 fast, 1 medium, 1 exhaustive):
 16456 deleted vars, 0 deleted constraints, 0 added constraints, 0 tightened bounds, 0 added holes, 0 changed sides, 136 changed coefficients
 30000 implications, 0 cliques
presolved problem has 13794 variables (114 bin, 0 int, 0 impl, 13680 cont) and 13915 constraints
  13680 constraints of type <varbound>
    234 constraints of type <linear>
      1 constraints of type <logicor>
Presolving Time: 3.53
transformed 27/29 original solutions to the transformed problem space

 time | node  | left  |LP iter|LP it/n|mem/heur|mdpt |vars |cons |rows |cuts |sepa|confs|strbr|  dualbound   | primalbound  |  gap   | compl. 
 39.6s|     1 |     0 | 34967 |     - |   583M |   0 |  13k|  13k|  13k|   0 |  0 |   0 |   0 | 5.059265e+04 | 5.187252e+04 |   2.53%| unknown
 39.6s|     1 |     0 | 34967 |     - |   583M |   0 |  13k|  13k|  13k|   0 |  0 |   0 |   0 | 5.059265e+04 | 5.187252e+04 |   2.53%| unknown
 39.8s|     1 |     0 | 34967 |     - |   585M |   0 |  13k|  13k|  13k|   0 |  1 |   0 |   0 | 5.059265e+04 | 5.187252e+04 |   2.53%| unknown
 55.5s|     1 |     2 | 39538 |     - |   596M |   0 |  13k|  13k|  13k|   0 |  3 |   0 |  19 | 5.083858e+04 | 5.187252e+04 |   2.03%| unknown
(run 2, node 1) restarting after 5 global fixings of integer variables

presolving:
(round 1, fast)       605 del vars, 0 del conss, 0 add conss, 0 chg bounds, 0 chg sides, 5 chg coeffs, 0 upgd conss, 30000 impls, 0 clqs
presolving (2 rounds: 2 fast, 1 medium, 1 exhaustive):
 605 deleted vars, 0 deleted constraints, 0 added constraints, 0 tightened bounds, 0 added holes, 0 changed sides, 5 changed coefficients
 30000 implications, 0 cliques
presolved problem has 13189 variables (109 bin, 0 int, 0 impl, 13080 cont) and 13310 constraints
  13080 constraints of type <varbound>
    229 constraints of type <linear>
      1 constraints of type <logicor>
Presolving Time: 4.45
transformed 40/42 original solutions to the transformed problem space

 time | node  | left  |LP iter|LP it/n|mem/heur|mdpt |vars |cons |rows |cuts |sepa|confs|strbr|  dualbound   | primalbound  |  gap   | compl. 
 59.4s|     1 |     0 | 46784 |     - |   614M |   0 |  13k|  13k|  13k|   0 |  0 |   0 |  19 | 5.083858e+04 | 5.187252e+04 |   2.03%| unknown
 74.2s|     1 |     2 | 51490 |     - |   618M |   0 |  13k|  13k|  13k|   0 |  2 |   0 |  38 | 5.083858e+04 | 5.187252e+04 |   2.03%| unknown

SCIP Status        : problem is solved [optimal solution found]
Solving Time (sec) : 110.45
Solving Nodes      : 89 (total of 91 nodes in 3 runs)
Primal Bound       : +5.18725241933738e+04 (181 solutions)
Dual Bound         : +5.18725241933738e+04
Gap                : 0.00 %
Solve Status: optimal
Solve Time: 110.51 seconds
Objective Value: 51872.52
